; benchmark generated from python API
(set-info :status unknown)
(declare-datatypes ((RealState 0)) (((RMk1 (rval1 Real)) (RMk2 (rval2 Real)))))
 (assert
 (forall ((|v11:0| Real) )(exists ((|v10:1_st| RealState) (val!3078 Real) )(forall ((|v9:2| Real) )(exists ((|v8:3_st| RealState) (val!3079 Real) )(forall ((|v7:4| Real) )(exists ((|v6:5_st| RealState) (val!3080 Real) )(forall ((|v5:6| Real) )(exists ((|v4:7_st| RealState) (val!3081 Real) )(forall ((|v3:8| Real) )(exists ((|v2:9_st| RealState) (val!3082 Real) )(forall ((|v1:10| Real) )(exists ((|v0:11_st| RealState) (val!3083 Real) )(let ((?x1188 (- 1.0)))
 (let ((?x2803 (rval2 |v8:3_st|)))
 (let ((?x517 (* 4.0 ?x2803)))
 (let (($x2231 (<= (+ (+ (+ (* ?x1188 |v9:2|) (* 3.0 |v11:0|)) (* 14.0 |v11:0|)) ?x517) ?x1188)))
 (let ((?x2743 (* 14.0 |v11:0|)))
 (let ((?x2536 (+ (+ (+ (* 13.0 (rval2 |v6:5_st|)) (* (- 12.0) |v5:6|)) (* 16.0 |v1:10|)) ?x2743)))
 (let ((?x2251 (- 17.0)))
 (let ((?x332 (+ (+ (* 5.0 (rval2 |v2:9_st|)) (* (- 2.0) |v9:2|)) (* (- 16.0) (rval2 |v6:5_st|)))))
 (let ((?x1908 (- 9.0)))
 (let ((?x1663 (rval2 |v2:9_st|)))
 (let ((?x109 (- 2.0)))
 (let ((?x1677 (* ?x109 ?x1663)))
 (let ((?x2398 (+ (+ (+ (* 15.0 |v9:2|) (* 17.0 |v5:6|)) (* 14.0 (rval2 |v4:7_st|))) ?x1677)))
 (let (($x2635 (and (and (<= ?x2398 ?x1908) (<= (+ ?x332 (* 9.0 |v9:2|)) ?x2251)) (and (<= ?x2536 ?x1188) $x2231))))
 (let ((?x2588 (- 4.0)))
 (let ((?x2160 (* 12.0 ?x2803)))
 (let ((?x1710 (+ (+ (+ (* (- 5.0) |v3:8|) (* 0.0 (rval2 |v4:7_st|))) (* 11.0 ?x1663)) ?x2160)))
 (let ((?x464 (+ (+ (+ (* 11.0 |v1:10|) (* 19.0 |v7:4|)) (* (- 12.0) |v9:2|)) (* (- 8.0) (rval2 |v4:7_st|)))))
 (let ((?x524 (- 18.0)))
 (let ((?x1175 (rval2 |v10:1_st|)))
 (let ((?x2412 (- 3.0)))
 (let ((?x3185 (* ?x2412 ?x1175)))
 (let ((?x1853 (+ (+ (+ (* 7.0 ?x1175) (* (- 6.0) ?x2803)) (* 18.0 |v1:10|)) ?x3185)))
 (let ((?x2685 (- 15.0)))
 (let ((?x123 (* 17.0 ?x1175)))
 (let ((?x1773 (+ (+ (+ (* 15.0 |v1:10|) (* (- 16.0) ?x1663)) (* (- 11.0) |v7:4|)) ?x123)))
 (let (($x940 (and (and (<= ?x1773 ?x2685) (<= ?x1853 ?x524)) (or (<= ?x464 9.0) (<= ?x1710 ?x2588)))))
 (let ((?x626 (+ (+ (+ (* 7.0 ?x1175) (* 16.0 |v1:10|)) (* 10.0 ?x2803)) (* ?x109 ?x1175))))
 (let ((?x1953 (- 14.0)))
 (let ((?x1427 (+ (+ (+ (* 11.0 ?x2803) (* 12.0 |v9:2|)) (* 2.0 |v5:6|)) (* (- 10.0) (rval2 |v6:5_st|)))))
 (let ((?x1311 (* 7.0 ?x1175)))
 (let ((?x1590 (+ (+ (+ (* (- 8.0) |v3:8|) (* 18.0 |v3:8|)) (* 3.0 |v9:2|)) ?x1311)))
 (let ((?x2115 (- 20.0)))
 (let ((?x2120 (+ (+ (+ (* ?x1188 ?x1175) (* 17.0 |v5:6|)) (* 5.0 |v11:0|)) (* ?x2685 ?x2803))))
 (let (($x1622 (or (or (<= ?x2120 ?x2115) (<= ?x1590 18.0)) (or (<= ?x1427 ?x1953) (<= ?x626 6.0)))))
 (let ((?x701 (+ (+ (+ (rval2 |v0:11_st|) (* ?x1908 ?x2803)) (* 20.0 ?x1175)) (* (- 5.0) ?x2803))))
 (let ((?x1248 (- 19.0)))
 (let ((?x2295 (* 8.0 |v11:0|)))
 (let ((?x608 (rval2 |v0:11_st|)))
 (let ((?x2992 (- 12.0)))
 (let ((?x1536 (* ?x2992 ?x608)))
 (let (($x1535 (<= (+ (+ (+ (* (- 10.0) ?x1175) (* 16.0 |v7:4|)) ?x1536) ?x2295) ?x1248)))
 (let ((?x2429 (+ (+ (+ (* (- 6.0) |v9:2|) (* 0.0 ?x1175)) (* 17.0 |v5:6|)) |v7:4|)))
 (let (($x3145 (or (or (and (<= ?x2429 ?x1908) (or $x1535 (<= ?x701 20.0))) $x1622) (or $x940 $x2635))))
 (let ((?x721 (- 5.0)))
 (let ((?x343 (+ (+ (+ (* 20.0 ?x608) (* 4.0 |v3:8|)) (* ?x2251 |v3:8|)) (* ?x2115 |v9:2|))))
 (let ((?x2229 (+ (+ (+ (* ?x524 ?x1663) (* 5.0 |v5:6|)) (* ?x1188 (rval2 |v4:7_st|))) (* ?x1908 |v9:2|))))
 (let ((?x907 (* 6.0 ?x608)))
 (let (($x1382 (<= (+ (+ (+ (* ?x109 |v11:0|) (* (- 16.0) ?x2803)) (* 14.0 ?x2803)) ?x907) 12.0)))
 (let ((?x1898 (rval2 |v4:7_st|)))
 (let ((?x976 (+ (+ (+ (* (- 7.0) |v9:2|) (* (- 16.0) |v9:2|)) (* ?x2115 ?x2803)) ?x1898)))
 (let (($x2101 (and (or (<= ?x976 7.0) $x1382) (and (<= ?x2229 0.0) (<= ?x343 ?x721)))))
 (let ((?x1580 (- 16.0)))
 (let ((?x72 (* ?x1580 ?x1663)))
 (let (($x503 (<= (+ (+ (+ (* 20.0 |v3:8|) (* 20.0 |v3:8|)) (* 18.0 ?x1175)) ?x72) 13.0)))
 (let (($x2732 (<= (+ (+ (+ ?x1677 (* ?x1580 |v5:6|)) (* ?x524 ?x1175)) (* ?x2992 |v7:4|)) 14.0)))
 (let ((?x506 (+ (+ (+ (* 11.0 |v3:8|) (* ?x2251 ?x1663)) (* 9.0 |v5:6|)) (* (- 13.0) |v3:8|))))
 (let (($x2650 (<= (+ (+ (+ (* ?x1580 ?x2803) ?x3185) (* ?x524 ?x1663)) (* 18.0 ?x1175)) ?x1188)))
 (let ((?x2505 (+ (+ (+ (* 18.0 |v7:4|) (* 17.0 |v7:4|)) (* (- 7.0) |v5:6|)) (* ?x109 |v3:8|))))
 (let ((?x1187 (* 3.0 |v11:0|)))
 (let (($x1081 (<= (+ (+ (+ (* ?x1908 (rval2 |v6:5_st|)) (* ?x2115 |v5:6|)) ?x1536) ?x1187) 11.0)))
 (let ((?x2204 (* 3.0 |v5:6|)))
 (let ((?x719 (+ (+ (+ (* 20.0 |v7:4|) (* 8.0 |v9:2|)) (* (- 8.0) |v3:8|)) ?x2204)))
 (let ((?x451 (rval2 |v6:5_st|)))
 (let ((?x2147 (* ?x2992 ?x451)))
 (let (($x135 (<= (+ (+ (+ (* ?x2412 ?x451) (* ?x2115 ?x1898)) (* 16.0 |v1:10|)) ?x2147) 3.0)))
 (let ((?x1526 (- 7.0)))
 (let ((?x977 (+ (+ (+ (* ?x2115 |v5:6|) (* ?x1580 ?x608)) (* 17.0 ?x1663)) (* ?x1248 ?x1175))))
 (let (($x2638 (and (<= ?x977 10.0) (<= (+ (+ (+ ?x1663 (* 8.0 ?x451)) (* ?x2115 |v11:0|)) ?x1898) ?x1526))))
 (let ((?x1624 (* 0.0 |v3:8|)))
 (let (($x2318 (<= (+ (+ (+ (* ?x721 |v11:0|) (* 20.0 ?x1898)) (* 0.0 |v1:10|)) ?x1624) ?x109)))
 (let ((?x1575 (+ (+ (+ (* 8.0 |v7:4|) (* 7.0 |v9:2|)) (* 9.0 ?x2803)) (* 13.0 |v7:4|))))
 (let (($x1216 (or (or (or (<= ?x1575 16.0) $x2318) $x2638) (or (or $x135 (<= ?x719 ?x1953)) (or $x1081 (<= ?x2505 0.0))))))
 (let (($x2930 (and $x1216 (or (or (and $x2650 (<= ?x506 18.0)) (or $x2732 $x503)) $x2101))))
 (let ((?x3171 (+ (+ (+ (* 4.0 |v7:4|) (* 10.0 ?x1663)) (* 2.0 |v9:2|)) (* 18.0 ?x1663))))
 (let ((?x2395 (- 10.0)))
 (let ((?x434 (* 17.0 ?x608)))
 (let (($x2775 (<= (+ (+ (+ (* 19.0 |v1:10|) (* ?x2685 ?x1663)) (* ?x721 |v11:0|)) ?x434) ?x2395)))
 (let ((?x2152 (* ?x2115 |v7:4|)))
 (let (($x255 (<= (+ (+ (+ (* 10.0 |v7:4|) (* 14.0 ?x2803)) (* 8.0 ?x608)) ?x2152) ?x1580)))
 (let (($x32 (<= (+ (+ (+ (* 0.0 |v9:2|) (* 7.0 |v1:10|)) (* 0.0 |v5:6|)) ?x2204) 15.0)))
 (let ((?x2337 (+ (+ (+ (* 11.0 |v7:4|) (* 15.0 ?x1175)) (* (- 11.0) ?x1663)) ?x608)))
 (let ((?x715 (* ?x721 |v5:6|)))
 (let (($x708 (<= (+ (+ (+ (* ?x1248 |v3:8|) (* (- 6.0) |v5:6|)) (* ?x1188 |v5:6|)) ?x715) 5.0)))
 (let ((?x2796 (+ (+ (+ (* 14.0 |v1:10|) (* ?x109 ?x1898)) (* ?x2992 |v5:6|)) (* (- 8.0) ?x451))))
 (let (($x933 (<= (+ (+ (+ |v5:6| (* 4.0 |v1:10|)) (* ?x524 ?x451)) (* (- 11.0) ?x2803)) ?x2685)))
 (let (($x2584 (or (and (or $x933 (<= ?x2796 5.0)) (and $x708 (<= ?x2337 ?x2685))) (and (or $x32 $x255) (or $x2775 (<= ?x3171 7.0))))))
 (let ((?x2792 (- 6.0)))
 (let ((?x2515 (* ?x2792 ?x2803)))
 (let (($x405 (<= (+ (+ (+ (* ?x2251 ?x1175) (* ?x2992 ?x1898)) (* 0.0 ?x1898)) ?x2515) 14.0)))
 (let ((?x455 (* 15.0 ?x451)))
 (let (($x3155 (<= (+ (+ (+ (* 6.0 |v1:10|) (* 10.0 |v5:6|)) (* ?x721 ?x1663)) ?x455) ?x2251)))
 (let ((?x226 (* 6.0 ?x1175)))
 (let (($x3094 (<= (+ (+ (+ (* 18.0 |v7:4|) (* 6.0 ?x1898)) (* 8.0 |v9:2|)) ?x226) ?x1188)))
 (let ((?x3168 (+ (+ (+ (* 17.0 |v7:4|) (* 6.0 ?x1663)) (* ?x1953 |v5:6|)) (* ?x1526 ?x1898))))
 (let ((?x698 (* 9.0 ?x1898)))
 (let (($x942 (<= (+ (+ (+ (* 14.0 |v1:10|) (* ?x2395 |v5:6|)) (* 10.0 ?x451)) ?x698) ?x2395)))
 (let (($x2172 (<= (+ (+ (+ (* ?x2685 ?x1663) ?x123) (* 7.0 ?x1663)) (* 4.0 ?x1898)) 6.0)))
 (let ((?x171 (+ (+ (+ (* 14.0 |v3:8|) (* ?x2685 |v3:8|)) (* 6.0 ?x2803)) (* ?x1248 ?x608))))
 (let ((?x18 (* 19.0 ?x1898)))
 (let (($x192 (<= (+ (+ (+ (* ?x1953 ?x608) (* 12.0 |v5:6|)) (* 0.0 ?x608)) ?x18) 0.0)))
 (let ((?x3194 (* 11.0 |v5:6|)))
 (let ((?x532 (+ (+ (+ (* 5.0 ?x1898) (* 14.0 |v1:10|)) (* (- 8.0) ?x608)) ?x3194)))
 (let (($x3014 (and (and (and (<= ?x532 19.0) $x192) (or (<= ?x171 ?x1248) $x2172)) (and (or $x942 (<= ?x3168 10.0)) (and $x3094 $x3155)))))
 (let (($x94 (<= (+ (+ (+ (* ?x2395 |v9:2|) ?x2147) (* 20.0 ?x1663)) (* ?x1248 |v7:4|)) ?x109)))
 (let ((?x2610 (* 14.0 |v3:8|)))
 (let (($x347 (<= (+ (+ (+ (* ?x1953 ?x608) (* (- 13.0) ?x1898)) (* ?x2115 ?x451)) ?x2610) ?x2251)))
 (let ((?x1015 (* ?x2792 |v5:6|)))
 (let (($x1812 (<= (+ (+ (+ (* 12.0 |v3:8|) (* ?x2251 |v9:2|)) (* 0.0 ?x2803)) ?x1015) 11.0)))
 (let ((?x2855 (* ?x2992 |v7:4|)))
 (let (($x1354 (<= (+ (+ (+ (* 11.0 |v9:2|) (* ?x2251 ?x451)) (* 7.0 |v3:8|)) ?x2855) ?x2395)))
 (let ((?x2196 (* 14.0 |v1:10|)))
 (let (($x1686 (<= (+ (+ (+ (* ?x1908 ?x2803) (* ?x1908 |v7:4|)) (* 5.0 ?x1663)) ?x2196) ?x1188)))
 (let ((?x1318 (+ (+ (+ (* 18.0 ?x2803) (* ?x1580 ?x1175)) (* 20.0 |v5:6|)) (* ?x524 |v7:4|))))
 (let (($x505 (<= (+ (+ (+ (* ?x1908 |v1:10|) (* ?x1908 ?x608)) (* 2.0 |v7:4|)) ?x2147) 18.0)))
 (let (($x2106 (<= (+ (+ (+ (* ?x2685 |v9:2|) (* ?x524 ?x1175)) (* 8.0 |v7:4|)) ?x1015) 14.0)))
 (let (($x1800 (and (and (and $x2106 $x505) (or (<= ?x1318 2.0) $x1686)) (or (and $x1354 $x1812) (and $x347 $x94)))))
 (let (($x1423 (not (= |v0:11_st| (RMk1 val!3083)))))
 (let (($x937 (not (= |v2:9_st| (RMk1 val!3082)))))
 (let (($x1277 (not (= |v4:7_st| (RMk1 val!3081)))))
 (let (($x1151 (not (= |v6:5_st| (RMk1 val!3080)))))
 (let (($x1011 (not (= |v8:3_st| (RMk1 val!3079)))))
 (let (($x439 (not (= |v10:1_st| (RMk1 val!3078)))))
 (and $x439 $x1011 $x1151 $x1277 $x937 $x1423 (or (and (or $x1800 $x3014) (or $x405 $x2584)) (and $x2930 $x3145)))))))))))))))))))))))))))))))))))))))))))))))))))))))))))))))))))))))))))))))))))))))))))))))))))))))))))))))))))))))))))))))
 )
 )
 )
 )
 )
 )
 )
 )
 )
 )
 )
 )
(check-sat)
